language Essence 1.3

letting blksize_delta be
        function(1 --> 7, 2 --> 7, 3 --> 7, 4 --> 7, 5 --> 7, 6 --> 7, 7 --> 7, 8 --> 7, 9 --> 7, 10 --> 7, 11 --> 7,
                 12 --> 7, 13 --> 7, 14 --> 7, 15 --> 7, 16 --> 7, 17 --> 7, 18 --> 7, 19 --> 7)
letting maxcars be
        function(1 --> 10, 2 --> 10, 3 --> 10, 4 --> 10, 5 --> 10, 6 --> 10, 7 --> 10, 8 --> 10, 9 --> 10, 10 --> 10,
                 11 --> 10, 12 --> 10, 13 --> 10, 14 --> 10, 15 --> 10, 16 --> 10, 17 --> 10, 18 --> 10, 19 --> 10)
letting n_cars be 229
letting n_classes be 40
letting n_options be 19
letting quantity be
        function(1 --> 5, 2 --> 5, 3 --> 5, 4 --> 5, 5 --> 5, 6 --> 5, 7 --> 5, 8 --> 5, 9 --> 27, 10 --> 5, 11 --> 5,
                 12 --> 5, 13 --> 6, 14 --> 5, 15 --> 5, 16 --> 5, 17 --> 5, 18 --> 6, 19 --> 5, 20 --> 5, 21 --> 5,
                 22 --> 5, 23 --> 5, 24 --> 5, 25 --> 5, 26 --> 5, 27 --> 5, 28 --> 5, 29 --> 5, 30 --> 5, 31 --> 5,
                 32 --> 5, 33 --> 5, 34 --> 5, 35 --> 5, 36 --> 5, 37 --> 5, 38 --> 5, 39 --> 5, 40 --> 10)
letting usage be
        relation((1, 2), (1, 7), (1, 11), (1, 16), (1, 19), (2, 7), (2, 9), (3, 5), (3, 10), (3, 11), (3, 12), (3, 13),
                 (3, 14), (4, 3), (4, 8), (5, 3), (5, 18), (6, 19), (7, 14), (8, 5), (8, 8), (8, 15), (8, 18), (9, 5),
                 (9, 6), (9, 12), (10, 5), (10, 8), (10, 16), (11, 19), (12, 19), (13, 8), (13, 9), (13, 13), (14, 1),
                 (14, 17), (15, 1), (15, 4), (15, 5), (16, 14), (17, 1), (17, 13), (17, 19), (18, 1), (18, 9), (19, 19),
                 (20, 15), (21, 6), (21, 12), (22, 2), (22, 8), (23, 13), (24, 12), (25, 2), (25, 6), (26, 2), (26, 4),
                 (26, 12), (27, 7), (27, 11), (27, 13), (28, 19), (29, 1), (30, 2), (31, 3), (31, 7), (31, 15),
                 (31, 17), (31, 19), (32, 19), (33, 12), (33, 13), (33, 18), (34, 16), (35, 19), (36, 1), (36, 14),
                 (37, 19), (38, 4), (38, 5), (38, 12), (38, 19), (39, 18), (40, 16))
$ Visualisation for usage
$  1  2
$  1  7
$  1 11
$  1 16
$  1 19
$  2  7
$  2  9
$  3  5
$  3 10
$  3 11
$  3 12
$  3 13
$  3 14
$  4  3
$  4  8
$  5  3
$  5 18
$  6 19
$  7 14
$  8  5
$  8  8
$  8 15
$  8 18
$  9  5
$  9  6
$  9 12
$ 10  5
$ 10  8
$ 10 16
$ 11 19
$ 12 19
$ 13  8
$ 13  9
$ 13 13
$ 14  1
$ 14 17
$ 15  1
$ 15  4
$ 15  5
$ 16 14
$ 17  1
$ 17 13
$ 17 19
$ 18  1
$ 18  9
$ 19 19
$ 20 15
$ 21  6
$ 21 12
$ 22  2
$ 22  8
$ 23 13
$ 24 12
$ 25  2
$ 25  6
$ 26  2
$ 26  4
$ 26 12
$ 27  7
$ 27 11
$ 27 13
$ 28 19
$ 29  1
$ 30  2
$ 31  3
$ 31  7
$ 31 15
$ 31 17
$ 31 19
$ 32 19
$ 33 12
$ 33 13
$ 33 18
$ 34 16
$ 35 19
$ 36  1
$ 36 14
$ 37 19
$ 38  4
$ 38  5
$ 38 12
$ 38 19
$ 39 18
$ 40 16

